language ESSENCE' 1.0

letting fixed be 
[
    [0,0,0,0,0,0,0,9,4],
    [7,6,0,9,1,0,0,5,0],
    [0,9,0,0,0,2,0,8,1],
    [0,7,0,0,5,0,0,1,0],
    [0,0,0,7,0,9,0,0,0],
    [0,8,0,0,3,1,0,6,7],
    [2,4,0,1,0,0,0,7,0],
    [0,1,0,0,9,0,0,4,5],
    [9,0,0,0,0,0,1,0,0]
]